NAME: instance_117
TYPE: TSP
DIMENSION: 20
EDGE_WEIGHT_TYPE: EUC_2D
NODE_COORD_SECTION
0 42.88 19.89
1 4.15 15.00
2 86.03 84.31
3 75.70 68.26
4 48.29 87.20
5 21.34 20.50
6 86.99 47.44
7 37.02 48.61
8 4.40 50.13
9 72.53 29.25
10 57.70 55.54
11 92.14 18.30
12 30.42 77.30
13 60.33 93.50
14 10.98 99.26
15 23.99 66.92
16 20.27 48.49
17 51.20 4.92
18 2.05 96.05
19 10.75 56.73
EOF
